c description: Random 3-CNF over 14 variables and 28 clauses
p cnf 14 28
5 -12 -13 0
4 -6 12 0
-7 -8 14 0
-3 -9 10 0
-2 3 5 0
3 -12 14 0
1 13 -14 0
2 3 -6 0
6 8 11 0
-1 10 11 0
-9 10 12 0
2 3 14 0
-8 12 -13 0
1 -10 -14 0
6 12 -13 0
9 -10 13 0
4 -11 -13 0
6 -12 -13 0
9 11 -12 0
2 -10 14 0
1 -3 10 0
-2 -11 14 0
8 -11 13 0
-1 -9 -13 0
-8 11 -13 0
-2 -11 13 0
3 4 8 0
9 11 12 0